% demand
num_movements = 12;
loading_factor = [1800, 1050, 1500, 1900, 1850, 2000, 1800, 1800, 1550, 1300, 850, 1700];
pickup_time = [0, 0, 0, 0, 0, 3, 3, 3, 3, 3, 4, 4];
delivery_time = [1, 2, 1, 4, 2, 4, 5, 4, 5, 5, 5, 5];

% transporter definition
total_capacity = 11000;
num_decks = 4;
capacity = [3000, 3000, 1000, 4000];

% ways out of decks
num_ways_out = 2;
paths_out = array3d(decks, ways_out, decks, [
% ways out of deck d1
2, 4, 0, 0, 3, 4, 0, 0, 

% ways out of deck d2
4, 0, 0, 0, 0, 0, 0, 0,	

% ways out of deck d3
4, 0, 0, 0, 0, 0, 0, 0,	

% ways out of deck d4
0, 0, 0, 0,	0, 0, 0, 0,	

]);

